&CONTROL
  calculation = 'scf'
  prefix = 'si'
  outdir = './tmp'
  pseudo_dir = '/home/albert/Softwares/qe_p/tests/band_kpath/pseudo'
/
&SYSTEM
  ibrav = 0
  nat = 2
  ntyp = 1
  ecutwfc = 30
  ecutrho = 120
/
&ELECTRONS
  conv_thr = 1.0e-8
/
ATOMIC_SPECIES
  Si  28.0855  Si.pbe-nl-rrkjus_psl.1.0.0.UPF

CELL_PARAMETERS angstrom
  0.000000  2.715500  2.715500
  2.715500  0.000000  2.715500
  2.715500  2.715500  0.000000

ATOMIC_POSITIONS crystal
  Si  0.000000  0.000000  0.000000
  Si  0.250000  0.250000  0.250000

K_POINTS automatic
  4 4 4 0 0 0
