! Generated from CIF by qe_input_generator
! k-spacing (1/Angstrom): 0.100000
! Space group name: F d -3 m
! Space group number: 227
! Symmetry operations from CIF:
!   x, y, z
!   -x, -y, -z

&CONTROL
  calculation = 'scf',
  prefix = 'test_si',
  outdir = './tmp',
  pseudo_dir = './pseudo'
/

&SYSTEM
  ibrav = 0,
  nat = 2,
  ntyp = 1,
  ecutwfc = 50,
  ecutrho = 400
/

&ELECTRONS
  conv_thr = 1.0d-8
/

ATOMIC_SPECIES
  Si 28.0850 Si.UPF

CELL_PARAMETERS angstrom
    5.4310000000    0.0000000000    0.0000000000
    0.0000000000    5.4310000000    0.0000000000
    0.0000000000    0.0000000000    5.4310000000

ATOMIC_POSITIONS crystal
  Si    0.0000000000    0.0000000000    0.0000000000
  Si    0.2500000000    0.2500000000    0.2500000000

K_POINTS automatic
  12 12 12 0 0 0
